NAME : RC101_40_02.886.tour
COMMENT : Cost = 0_886
COMMENT : Found by LKH [Keld Helsgaun] Thu Apr 27 22:39:23 2017
TYPE : TOUR
DIMENSION : 49
TOUR_SECTION
1
28
27
29
31
33
34
42
35
32
30
39
40
44
25
26
24
22
19
48
41
37
36
38
46
23
20
21
49
11
12
10
43
3
9
8
7
45
13
15
18
17
16
14
47
5
6
4
2
-1
EOF
